SCIP Status        : solving was interrupted [time limit reached]
Total Time         :    3600.00
  solving          :    3600.00
  presolving       :       0.50 (included in solving)
  reading          :       0.00
  copying          :       2.75 (49 #copies) (minimal 0.00, maximal 0.22, average 0.06)
Original Problem   :
  Problem name     : bbbenchmark/pw05_100.2.cut
  Variables        : 101 (100 binary, 0 integer, 0 implicit integer, 1 continuous)
  Constraints      : 1 initial, 1 maximal
  Objective        : minimize, 1 non-zeros (abs.min = 1, abs.max = 1)
Presolved Problem  :
  Problem name     : t_bbbenchmark/pw05_100.2.cut
  Variables        : 1915 (100 binary, 0 integer, 1801 implicit integer, 14 continuous)
  Constraints      : 1841 initial, 11843 maximal
  Objective        : minimize, 1 non-zeros (abs.min = 1, abs.max = 1)
  Nonzeros         : 8731 constraint, 202 clique table
Presolvers         :   ExecTime  SetupTime  Calls  FixedVars   AggrVars   ChgTypes  ChgBounds   AddHoles    DelCons    AddCons   ChgSides   ChgCoefs
  boundshift       :       0.00       0.00      0          0          0          0          0          0          0          0          0          0
  convertinttobin  :       0.00       0.00      0          0          0          0          0          0          0          0          0          0
  domcol           :       0.00       0.00      1          0          0          0          0          0          0          0          0          0
  dualagg          :       0.00       0.00      0          0          0          0          0          0          0          0          0          0
  dualcomp         :       0.00       0.00      1          0          0          0          0          0          0          0          0          0
  dualinfer        :       0.00       0.00      0          0          0          0          0          0          0          0          0          0
  dualsparsify     :       0.00       0.00      1          0          0          0          0          0          0          0          0          0
  gateextraction   :       0.00       0.00      0          0          0          0          0          0          0          0          0          0
  implics          :       0.00       0.00      2          0          0          0          0          0          0          0          0          0
  inttobinary      :       0.00       0.00      0          0          0          0          0          0          0          0          0          0
  qpkktref         :       0.00       0.00      0          0          0          0          0          0          0          0          0          0
  redvub           :       0.00       0.00      0          0          0          0          0          0          0          0          0          0
  sparsify         :       0.00       0.00      1          0          0          0          0          0          0          0          0          0
  stuffing         :       0.00       0.00      0          0          0          0          0          0          0          0          0          0
  trivial          :       0.00       0.00      4          0          0          0          0          0          0          0          0          0
  tworowbnd        :       0.00       0.00      0          0          0          0          0          0          0          0          0          0
  dualfix          :       0.00       0.00      4          0          0          0          0          0          0          0          0          0
  genvbounds       :       0.00       0.00      0          0          0          0          0          0          0          0          0          0
  probing          :       0.33       0.00      1          0          0          0          0          0          0          0          0          0
  pseudoobj        :       0.00       0.00      1          0          0          0          1          0          0          0          0          0
  symmetry         :       0.00       0.00      0          0          0          0          0          0          0          0          0          0
  vbounds          :       0.00       0.00      1          0          0          0          0          0          0          0          0          0
  varbound         :       0.00       0.00      2          0          0          0          0          0          0          0          0          0
  and              :       0.00       0.01      2          0          0          0          0          0          0          0          0          0
  linear           :       0.00       0.00      2          0          0          0          0          0          0          0          0          0
  logicor          :       0.00       0.00      0          0          0          0          0          0          0          0          0          0
  bounddisjunction :       0.00       0.00      0          0          0          0          0          0          0          0          0          0
  nonlinear        :       0.17       0.01      5          0          0          0          1          0          0       1840          0          0
  benders          :       0.00       0.00      0          0          0          0          0          0          0          0          0          0
  components       :       0.00       0.00      1          0          0          0          0          0          0          0          0          0
  root node        :          -          -      -          0          -          -         16          -          -          -          -          -
Constraints        :     Number  MaxNumber  #Separate #Propagate    #EnfoLP    #EnfoRelax  #EnfoPS    #Check   #ResProp    Cutoffs    DomReds       Cuts    Applied      Conss   Children
  benderslp        :          0          0          0          0      69564          0          0       9591          0          0          0          0          0          0          0
  integral         :          0          0          0          0      69564          0          0       9591          0          0       1609          0          0        826     137972
  varbound         :         13         13         55     543723          0          0          0        105          0          0      40166          0          0          0          0
  and              :       1801       1801      91032     608235         12          0          0        105     574749         10     883652      13676      12520          0          0
  linear           :         27+        51         55     608257         12          0          0        103        237          2     215155          0          0          0          0
  logicor          :          0+      9964          0      98439          0          0          0          0        229        337         82          0          0          0          0
  bounddisjunction :          0+       195          0      27105          0          0          0          0          0         18          2          0          0          0          0
  benders          :          0          0          0          0         12          0          0         77          0          0          0          0          0          0          0
  countsols        :          0          0          0          0         12          0          0         77          0          0          0          0          0          0          0
  components       :          0          0          0          0          0          0          0          0          0          0          0          0          0          0          0
Constraint Timings :  TotalTime  SetupTime   Separate  Propagate     EnfoLP     EnfoPS     EnfoRelax   Check    ResProp    SB-Prop
  benderslp        :       0.08       0.00       0.00       0.00       0.08       0.00       0.00       0.00       0.00       0.00
  integral         :      49.97       0.00       0.00       0.00      49.93       0.00       0.00       0.04       0.00       0.00
  varbound         :       0.66       0.00       0.00       0.65       0.00       0.00       0.00       0.00       0.00       0.01
  and              :      93.35       0.01      62.47      29.65       0.00       0.00       0.00       0.03       0.48       0.71
  linear           :       3.62       0.00       0.05       3.52       0.00       0.00       0.00       0.01       0.00       0.04
  logicor          :      11.38       0.00       0.00      11.34       0.00       0.00       0.00       0.00       0.00       0.04
  bounddisjunction :       0.40       0.00       0.00       0.40       0.00       0.00       0.00       0.00       0.00       0.00
  benders          :       0.00       0.00       0.00       0.00       0.00       0.00       0.00       0.00       0.00       0.00
  countsols        :       0.00       0.00       0.00       0.00       0.00       0.00       0.00       0.00       0.00       0.00
  components       :       0.12       0.00       0.00       0.12       0.00       0.00       0.00       0.00       0.00       0.00
Propagators        : #Propagate   #ResProp    Cutoffs    DomReds
  dualfix          :          4          0          0          0
  genvbounds       :          0          0          0          0
  nlobbt           :          0          0          0          0
  obbt             :          0          0          0          0
  probing          :          0          0          0          0
  pseudoobj        :     305088          0          0         39
  redcost          :     172217          0          0      69801
  rootredcost      :         21          0          0          0
  symmetry         :          0          0          0          0
  vbounds          :      81333          0          0          0
Propagator Timings :  TotalTime  SetupTime   Presolve  Propagate    ResProp    SB-Prop
  dualfix          :       0.00       0.00       0.00       0.00       0.00       0.00
  genvbounds       :       0.48       0.00       0.00       0.48       0.00       0.00
  nlobbt           :       0.00       0.00       0.00       0.00       0.00       0.00
  obbt             :       0.00       0.00       0.00       0.00       0.00       0.00
  probing          :       0.33       0.00       0.33       0.00       0.00       0.00
  pseudoobj        :       0.69       0.00       0.00       0.69       0.00       0.00
  redcost          :      13.13       0.00       0.00      13.10       0.00       0.03
  rootredcost      :       0.43       0.00       0.00       0.43       0.00       0.00
  symmetry         :       0.18       0.00       0.00       0.18       0.00       0.00
  vbounds          :       0.49       0.00       0.00       0.48       0.00       0.01
Conflict Analysis  :       Time      Calls    Success    DomReds  Conflicts   Literals    Reconvs ReconvLits   Dualrays   Nonzeros   LP Iters   (pool size: [10000,10000])
  propagation      :       0.02        365        266          -        361       69.6          0        0.0          -          -          -
  infeasible LP    :       0.01          5          5          -        170      137.0          0        0.0         40      100.6          0
  bound exceed. LP :      30.00       6035       5743          -     164436      110.8          0        0.0          0        0.0      68935
  strong branching :       0.00          0          0          -          0        0.0          0        0.0          -          -          0
  pseudo solution  :       0.00          0          0          -          0        0.0          0        0.0          -          -          -
  applied globally :       1.16          -          -          0      34336      129.5          -          -         40          -          -
  applied locally  :          -          -          -          0          0        0.0          -          -          0          -          -
Separators         :   ExecTime  SetupTime      Calls  RootCalls    Cutoffs    DomReds  FoundCuts ViaPoolAdd  DirectAdd    Applied ViaPoolApp  DirectApp      Conss
  cut pool         :       9.01          -      27225         78          -          -      47305    2023746          -          -          -          -          -    (maximal pool size:       3607)
  aggregation      :      66.72       0.00       8823         55          0          0       1228       1403          0        396        396          0          0
  > cmir           :          -          -          -          -          -          -          -       1401          0        395        395          0          -
  > flowcover      :          -          -          -          -          -          -          -          2          0          1          1          0          -
  > knapsackcover  :          -          -          -          -          -          -          -          0          0          0          0          0          -
  cgmip            :       0.00       0.00          0          0          0          0          0          0          0          0          0          0          0
  clique           :       0.00       0.00         55         55          0          0          0          0          0          0          0          0          0
  closecuts        :       0.00       0.00          0          0          0          0          0          0          0          0          0          0          0
  convexproj       :       0.00       0.00          0          0          0          0          0          0          0          0          0          0          0
  disjunctive      :       0.00       0.00          0          0          0          0          0          0          0          0          0          0          0
  eccuts           :       0.00       0.00          0          0          0          0          0          0          0          0          0          0          0
  gauge            :       0.00       0.00          0          0          0          0          0          0          0          0          0          0          0
  gomory           :       0.00       0.00          0          0          0          0          0          0          0          0          0          0          0
  > gomorymi       :          -          -          -          -          -          -          -          0          0          0          0          0          -
  > strongcg       :          -          -          -          -          -          -          -          0          0          0          0          0          -
  impliedbounds    :       0.69       0.00       8823         55          0          0         57          4          0          2          2          0          0
  interlattice     :       0.25       0.00         30         30          0          0         30          0         30         28          0         28          0
  interminor       :       0.00       0.00          0          0          0          0          0          0          0          0          0          0          0
  intersub         :       0.00       0.00          0          0          0          0          0          0          0          0          0          0          0
  intobj           :       0.00       0.00          0          0          0          0          0          0          0          0          0          0          0
  mcf              :       0.00       0.00          1          1          0          0          0          0          0          0          0          0          0
  minor            :       0.01       0.00          0          0          0          0          0          0          0          0          0          0          0
  mixing           :       0.02       0.00       8823         55          0          0          0          0          0          0          0          0          0
  oddcycle         :       0.00       0.00          0          0          0          0          0          0          0          0          0          0          0
  rapidlearning    :       0.00       0.00          0          0          0          0          0          0          0          0          0          0          0
  rlt              :       0.00       0.00         10         10          0          0          0          0          0          0          0          0          0
  zerohalf         :      82.40       0.00       7876         20          0          0      46021    2022339          1     185314     185314          0          0
Cutselectors       :   ExecTime  SetupTime      Calls  RootCalls   Selected     Forced   Filtered  RootSelec   RootForc   RootFilt 
  hybrid           :       2.57       0.00      21237         53     198260          0    1839193        233          0         13
Pricers            :   ExecTime  SetupTime      Calls       Vars
  problem variables:       0.00          -          0          0
Branching Rules    :   ExecTime  SetupTime   BranchLP  BranchExt   BranchPS    Cutoffs    DomReds       Cuts      Conss   Children
  allfullstrong    :       0.00       0.00          0          0          0          0          0          0          0          0
  cloud            :       0.00       0.00          0          0          0          0          0          0          0          0
  distribution     :       0.00       0.00          0          0          0          0          0          0          0          0
  fullstrong       :       0.00       0.00          0          0          0          0          0          0          0          0
  inference        :       0.00       0.00          0          0          0          0          0          0          0          0
  leastinf         :       0.00       0.00          0          0          0          0          0          0          0          0
  lookahead        :       0.00       0.00          0          0          0          0          0          0          0          0
  mostinf          :       0.00       0.00          0          0          0          0          0          0          0          0
  multaggr         :       0.00       0.00          0          0          0          0          0          0          0          0
  nodereopt        :       0.00       0.00          0          0          0          0          0          0          0          0
  pscost           :       0.00       0.00          0          0          0          0          0          0          0          0
  random           :       0.00       0.00          0          0          0          0          0          0          0          0
  relpscost        :      49.62       0.00      69552          0          0          0       1609          0        855     137972
  vanillafullstrong:       0.00       0.00          0          0          0          0          0          0          0          0
Primal Heuristics  :   ExecTime  SetupTime      Calls      Found       Best
  LP solutions     :       0.08          -          -         12         12
  relax solutions  :       0.00          -          -          0          0
  pseudo solutions :       0.00          -          -          0          0
  strong branching :       0.00          -          -          0          0
  actconsdiving    :       0.00       0.00          0          0          0
  adaptivediving   :       4.54       0.00         29          0          0
  alns             :       7.26       0.00         23         10         10
  bound            :       0.00       0.00          0          0          0
  clique           :       0.01       0.00          1          0          0
  coefdiving       :       0.00       0.00          0          0          0
  completesol      :       0.00       0.00          0          0          0
  conflictdiving   :      96.19       0.00        672          0          0
  crossover        :       3.55       0.00          7          1          1
  dins             :       0.00       0.00          0          0          0
  distributiondivin:      81.95       0.00        357          0          0
  dps              :       0.00       0.00          0          0          0
  dualval          :       0.00       0.00          0          0          0
  farkasdiving     :       0.00       0.00          0          0          0
  feaspump         :       0.15       0.00          1          1          1
  fixandinfer      :       0.00       0.00          0          0          0
  fracdiving       :      69.21       0.00        414          0          0
  gins             :       0.09       0.00          0          0          0
  guideddiving     :      66.23       0.00        439          0          0
  indicator        :       0.08       0.00          0          0          0
  indicatordiving  :       0.00       0.00          0          0          0
  intdiving        :       0.00       0.00          0          0          0
  intshifting      :       0.63       0.00         63          0          0
  linesearchdiving :      63.96       0.00        464          0          0
  localbranching   :       0.00       0.00          0          0          0
  locks            :       0.02       0.00          1          0          0
  lpface           :       0.11       0.00          0          0          0
  mpec             :     109.06       0.00         11          1          1
  multistart       :       0.00       0.00          0          0          0
  mutation         :       0.00       0.00          0          0          0
  nlpdiving        :      21.40       0.00          3          0          0
  objpscostdiving  :     125.91       0.00         88         44          0
  octane           :       0.00       0.00          0          0          0
  ofins            :       0.07       0.00          0          0          0
  oneopt           :       0.12       0.00         29          0          0
  padm             :       0.00       0.00          0          0          0
  proximity        :       0.00       0.00          0          0          0
  pscostdiving     :      64.01       0.00        364          1          1
  randrounding     :       0.70       0.00       9510          0          0
  rens             :       0.00       0.00          0          0          0
  reoptsols        :       0.00       0.00          0          0          0
  repair           :       0.00       0.00          0          0          0
  rins             :       3.62       0.00         19          0          0
  rootsoldiving    :      71.45       0.00         43          6          0
  rounding         :       1.30       0.00       4063          0          0
  shiftandpropagate:       0.00       0.00          0          0          0
  shifting         :      68.14       0.00      12646          7          6
  simplerounding   :       0.11       0.00          0          0          0
  subnlp           :     147.30       0.00          0          0          0
  trivial          :       0.00       0.00          2          2          2
  trivialnegation  :       0.00       0.00          0          0          0
  trustregion      :       0.00       0.00          0          0          0
  trysol           :       0.11       0.00          0          0          0
  twoopt           :       0.00       0.00          0          0          0
  undercover       :       2.00       0.00          1          1          1
  vbounds          :       0.00       0.00          0          0          0
  veclendiving     :      65.29       0.00        492          0          0
  zeroobj          :       0.00       0.00          0          0          0
  zirounding       :       0.27       0.00       1000          0          0
  other solutions  :          -          -          -          0          -
Diving (single)    :      Calls      Nodes   LP Iters Backtracks  Conflicts   MinDepth   MaxDepth   AvgDepth  RoundSols  NLeafSols  MinSolDpt  MaxSolDpt  AvgSolDpt
  actconsdiving    :          0          -          -          -          -          -          -          -          -          -          -          -          -
  coefdiving       :          0          -          -          -          -          -          -          -          -          -          -          -          -
  conflictdiving   :        672      28241     708238        686      48290         53         82       63.1          0          -          -          -          -
  distributiondivin:        357      12588     516576        389      12871         46         66       55.2          0          -          -          -          -
  farkasdiving     :          0          -          -          -          -          -          -          -          -          -          -          -          -
  fracdiving       :        414      66556     514569        119       2236         55        703      181.4          0          -          -          -          -
  guideddiving     :        439      56077     512090        138       5608         55        362      149.2          0          -          -          -          -
  indicatordiving  :          0          -          -          -          -          -          -          -          -          -          -          -          -
  linesearchdiving :        464      18398     507602        492      29776         47         87       60.0          0          -          -          -          -
  pscostdiving     :        364      16751     528775        382      16284         54         81       65.7          0          1         81         81       81.0
  veclendiving     :        492      20884     509151        494      38545         52         88       62.9          0          -          -          -          -
Diving (adaptive)  :      Calls      Nodes   LP Iters Backtracks  Conflicts   MinDepth   MaxDepth   AvgDepth  RoundSols  NLeafSols  MinSolDpt  MaxSolDpt  AvgSolDpt
  actconsdiving    :          5        198       7319          3        110         54         58       55.8          0          -          -          -          -
  coefdiving       :          7        275       7822          6        485         49         77       59.6          0          -          -          -          -
  conflictdiving   :          0          -          -          -          -          -          -          -          -          -          -          -          -
  distributiondivin:          0          -          -          -          -          -          -          -          -          -          -          -          -
  farkasdiving     :          0          -          -          -          -          -          -          -          -          -          -          -          -
  fracdiving       :          6        979       7564          1         21         96        233      177.8          0          -          -          -          -
  guideddiving     :          2        302       2437          0          0        136        203      169.5          0          -          -          -          -
  indicatordiving  :          0          -          -          -          -          -          -          -          -          -          -          -          -
  linesearchdiving :          3        117       3107          3        207         56         60       57.7          0          -          -          -          -
  pscostdiving     :          2         95       2906          2         64         64         71       67.5          0          -          -          -          -
  veclendiving     :          4        167       4355          4        310         58         61       59.2          0          -          -          -          -
Neighborhoods      :      Calls  SetupTime  SolveTime SolveNodes       Sols       Best       Exp3  EpsGreedy        UCB TgtFixRate  Opt  Inf Node Stal  Sol  Usr Othr Actv
  rens             :          1       0.00       0.00          0          0          0    0.00000   -1.00000    0.07131      0.900    0    0    0    0    0    0    1    1
  rins             :          2       0.09       0.10         58          0          0    0.00000   -1.00000    0.47358      0.850    0    1    0    1    0    0    0    1
  mutation         :          5       0.34       3.39       2325          6          6    0.00000   -1.00000    0.49263      0.585    2    0    0    2    1    0    0    1
  localbranching   :          2       0.17       0.10         78          0          0    0.00000   -1.00000    0.47085      0.850    0    1    0    1    0    0    0    1
  crossover        :          3       0.43       0.59        253          3          3    0.00000   -1.00000    0.42186      0.662    0    1    0    1    1    0    0    1
  proximity        :          2       0.19       0.20         88          0          0    0.00000   -1.00000    0.46791      0.850    0    1    0    1    0    0    0    1
  zeroobjective    :          2       0.15       0.08         74          0          0    0.00000   -1.00000    0.47079      0.850    0    1    0    1    0    0    0    1
  dins             :          6       0.82       0.35        347          1          1    0.00000   -1.00000    0.51867      0.881    0    2    0    4    0    0    0    1
  trustregion      :          0       0.00       0.00          0          0          0    0.00000   -1.00000    1.00000      0.900    0    0    0    0    0    0    0    0
Expressions        :   #IntEval  IntEvalTi   #RevProp  RevPropTi    DomReds    Cutoffs  #Estimate  EstimTime  Branching  #Simplify SimplifyTi Simplified
  pow              :          0       0.00          0       0.00          0          0          0       0.00          0          0       0.00          0
  prod             :       9900       0.00          0       0.00          0          0          0       0.00          0       6751       0.02          0
  sum              :          8       0.00          2       0.00          0          0          0       0.00          0          3       0.04          2
  var              :       6554       0.00          0       0.00          0          0          0       0.00          0      15619       0.00          0
  varidx           :          0       0.00          0       0.00          0          0          0       0.00          0          0       0.00          0
LP                 :       Time      Calls Iterations  Iter/call   Iter/sec  Time-0-It Calls-0-It    ItLimit
  primal LP        :     114.58      11375          0       0.00       0.00     114.51      11375
  dual LP          :    1926.67     142239   10014180      76.81    5197.66       5.96      11857
  lex dual LP      :       0.00          0          0       0.00          -
  barrier LP       :       0.00          0          0       0.00          -       0.00          0
  resolve instable :       0.00          0          0       0.00          -
  diving/probing LP:     602.10      18631    4732123     253.99    7859.36
  strong branching :      19.98       2075     168638      81.27    8440.34          -          -        238
    (at root node) :          -         20       3283     164.15          -
  conflict analysis:      12.20       6981      68935       9.87    5650.41
NLP relaxation     :
  solve time       :      20.78 (7 calls)
  convexity        :  nonconvex (40 linear rows, 0 convex ineq., 0 nonconvex ineq., 1801 nonlinear eq. or two-sided ineq.)
NLP Solvers        :  #Problems  ProblemTi    #Solves  SolveTime      #Iter  Time/Iter      #Okay #TimeLimit #IterLimit #LObjLimit #Interrupt  #NumError #EvalError  #OutOfMem #LicenseEr #OtherTerm   #GlobOpt    #LocOpt  #Feasible #LocInfeas #GlobInfea #Unbounded   #Unknown
  ipopt            :         12       6.08         31     133.87       1685       0.08         30          0          1          0          0          0          0          0          0          0          0         14          0         14          0          0          3
B&B Tree           :
  number of runs   :          1
  nodes            :     108636 (68986 internal, 39650 leaves)
  feasible leaves  :         12
  infeas. leaves   :         29
  objective leaves :      39608
  nodes (total)    :     108636 (68986 internal, 39650 leaves)
  nodes left       :      29042
  max depth        :         65
  max depth (total):         65
  backtracks       :      24508 (22.6%)
  early backtracks :          0 (0.0%)
  nodes exc. ref.  :          0 (0.0%)
  delayed cutoffs  :          5
  repropagations   :        120 (600 domain reductions, 0 cutoffs)
  avg switch length:       6.02
  switching time   :     146.62
Estim. Tree Size   :     217862
Estimation Tree    : 137973 nodes (108931 visited, 68986 internal, 39945 leaves, 29042 open), weight: 0.0000 completed 0.0968
Estimations        :      estim      value      trend resolution     smooth
  wbe              : 52530905137363          -          -          -          -
  tree-profile     :         -1          -          -          -          -
  gap              :    1118823    0.68864    0.00004         64    1081633
  tree-weight      :     217862    0.00000    0.00000         64     217723
  leaf-frequency   :     217862    0.36670   -0.00001         64     305687
  ssg              :    5790420    0.84718   -0.00002         64    5764526
  open-nodes       :     217862 29042.00000   28.40767         64     217723
Root Node          :
  First LP value   : -5.45898989898991e+00
  First LP Iters   :       1707 (9483.33 Iter/sec)
  First LP Time    :       0.18
  Final Dual Bound : -5.23074074074075e+00
  Final Root Iters :       2475
  Root LP Estimate : -1.84233645845719e+00
Solution           :
  Solutions found  :         86 (35 improvements)
  First Solution   : +1.00000000000000e+05   (in run 1, after 0 nodes, 0.03 seconds, depth 0, found by <trivial>)
  Gap First Sol.   :   infinite
  Gap Last Sol.    :      45.26 %
  Primal Bound     : -3.13535353535354e+00   (in run 1, after 106679 nodes, 3486.03 seconds, depth 41, found by <relaxation>)
  Dual Bound       : -4.55296243347023e+00
  Gap              :      45.21 %
Integrals          :      Total       Avg%
  primal-dual      :  121074.61      33.63
  primal-ref       :          -          - (not evaluated)
  dual-ref         :          -          - (not evaluated)
